70
1481
4
35
59
54
29
0 1
0 2
0 3
0 4
0 5
0 8
0 10
0 12
0 14
0 15
0 17
0 18
0 19
0 20
0 21
0 22
0 23
0 25
0 27
0 29
0 33
0 35
0 38
0 39
0 41
0 42
0 43
0 44
0 45
0 47
0 48
0 49
0 50
0 51
0 54
0 55
0 56
0 59
0 61
0 63
0 64
0 65
0 69
1 2
1 6
1 7
1 9
1 13
1 15
1 16
1 22
1 23
1 24
1 25
1 26
1 27
1 31
1 33
1 34
1 35
1 36
1 37
1 38
1 39
1 40
1 41
1 43
1 45
1 46
1 47
1 49
1 50
1 51
1 52
1 53
1 55
1 56
1 57
1 59
1 60
1 61
1 62
1 63
1 64
1 67
1 69
2 3
2 9
2 10
2 12
2 14
2 15
2 16
2 17
2 18
2 20
2 23
2 26
2 27
2 28
2 29
2 30
2 31
2 32
2 34
2 35
2 37
2 38
2 39
2 40
2 41
2 43
2 44
2 45
2 46
2 48
2 49
2 50
2 52
2 53
2 54
2 56
2 57
2 58
2 60
2 61
2 64
2 66
2 67
2 68
2 69
3 5
3 6
3 8
3 9
3 10
3 11
3 14
3 15
3 16
3 17
3 18
3 21
3 22
3 26
3 28
3 30
3 32
3 33
3 34
3 35
3 36
3 38
3 40
3 41
3 42
3 43
3 44
3 45
3 47
3 50
3 53
3 54
3 58
3 60
3 61
3 62
3 63
3 64
3 67
3 68
4 5
4 7
4 8
4 9
4 10
4 12
4 13
4 14
4 16
4 17
4 19
4 20
4 23
4 25
4 27
4 28
4 29
4 30
4 32
4 33
4 34
4 35
4 38
4 39
4 40
4 41
4 42
4 43
4 44
4 45
4 46
4 48
4 49
4 50
4 51
4 55
4 58
4 59
4 60
4 62
4 64
4 66
4 68
5 6
5 9
5 10
5 12
5 13
5 15
5 16
5 17
5 18
5 19
5 21
5 22
5 26
5 27
5 28
5 29
5 30
5 32
5 34
5 35
5 37
5 41
5 43
5 44
5 46
5 47
5 48
5 49
5 50
5 51
5 52
5 54
5 55
5 56
5 58
5 59
5 60
5 62
5 64
5 65
5 66
5 67
5 68
5 69
6 8
6 9
6 10
6 11
6 12
6 14
6 15
6 19
6 21
6 24
6 25
6 26
6 27
6 28
6 29
6 34
6 35
6 36
6 37
6 40
6 41
6 43
6 45
6 46
6 49
6 50
6 51
6 54
6 58
6 59
6 61
6 65
6 66
6 68
7 9
7 11
7 12
7 13
7 19
7 20
7 24
7 25
7 29
7 34
7 35
7 36
7 37
7 38
7 39
7 40
7 41
7 43
7 45
7 47
7 48
7 49
7 50
7 54
7 55
7 56
7 60
7 61
7 62
7 67
7 68
7 69
8 9
8 10
8 12
8 17
8 21
8 22
8 24
8 25
8 26
8 29
8 31
8 32
8 33
8 34
8 36
8 37
8 38
8 39
8 40
8 45
8 46
8 48
8 49
8 53
8 54
8 55
8 59
8 62
8 64
8 65
8 68
8 69
9 11
9 12
9 13
9 14
9 16
9 17
9 18
9 19
9 20
9 22
9 25
9 26
9 27
9 29
9 30
9 32
9 34
9 35
9 36
9 38
9 39
9 40
9 42
9 43
9 44
9 46
9 49
9 50
9 52
9 54
9 55
9 56
9 57
9 58
9 61
9 62
9 64
9 65
9 66
9 67
9 68
9 69
10 11
10 12
10 14
10 15
10 18
10 19
10 20
10 21
10 22
10 23
10 25
10 26
10 28
10 29
10 31
10 32
10 34
10 37
10 38
10 42
10 43
10 44
10 45
10 47
10 48
10 50
10 55
10 56
10 58
10 60
10 62
10 66
11 12
11 14
11 16
11 17
11 18
11 19
11 21
11 22
11 24
11 26
11 28
11 29
11 30
11 33
11 34
11 35
11 39
11 41
11 42
11 43
11 44
11 46
11 49
11 50
11 51
11 52
11 54
11 57
11 58
11 60
11 61
11 62
11 64
11 65
11 66
11 67
11 69
12 13
12 14
12 16
12 17
12 18
12 20
12 22
12 25
12 26
12 27
12 29
12 30
12 31
12 32
12 33
12 34
12 38
12 39
12 40
12 42
12 43
12 44
12 47
12 49
12 50
12 51
12 52
12 53
12 54
12 56
12 57
12 60
12 61
12 62
12 63
12 65
12 67
13 14
13 16
13 18
13 19
13 24
13 25
13 26
13 30
13 31
13 33
13 35
13 37
13 38
13 40
13 41
13 44
13 45
13 46
13 48
13 50
13 55
13 57
13 61
13 63
13 66
13 67
13 69
14 16
14 17
14 18
14 20
14 21
14 22
14 24
14 26
14 27
14 28
14 29
14 31
14 32
14 34
14 35
14 37
14 38
14 42
14 43
14 44
14 45
14 47
14 48
14 49
14 51
14 55
14 56
14 57
14 58
14 59
14 60
14 61
14 62
14 63
14 64
14 65
14 66
15 16
15 17
15 18
15 19
15 20
15 22
15 23
15 24
15 26
15 28
15 29
15 30
15 32
15 33
15 36
15 37
15 40
15 41
15 42
15 44
15 45
15 46
15 47
15 51
15 52
15 53
15 54
15 55
15 56
15 58
15 60
15 61
15 62
15 63
15 64
15 66
15 69
16 19
16 20
16 21
16 22
16 23
16 24
16 25
16 26
16 27
16 28
16 29
16 30
16 31
16 33
16 34
16 35
16 36
16 37
16 40
16 41
16 43
16 44
16 45
16 47
16 55
16 56
16 57
16 61
16 62
16 63
16 65
16 66
16 67
16 68
16 69
17 20
17 23
17 24
17 25
17 26
17 27
17 28
17 29
17 30
17 33
17 34
17 35
17 36
17 37
17 42
17 45
17 46
17 47
17 49
17 50
17 53
17 55
17 57
17 58
17 59
17 60
17 63
17 65
17 66
17 67
17 69
18 20
18 21
18 22
18 24
18 25
18 26
18 27
18 29
18 31
18 32
18 33
18 34
18 35
18 36
18 37
18 40
18 41
18 42
18 43
18 44
18 45
18 46
18 48
18 50
18 51
18 52
18 53
18 54
18 55
18 56
18 57
18 58
18 59
18 60
18 63
18 64
18 65
18 66
18 69
19 20
19 21
19 27
19 29
19 30
19 31
19 33
19 34
19 35
19 36
19 37
19 38
19 39
19 40
19 42
19 43
19 45
19 46
19 47
19 48
19 49
19 51
19 52
19 53
19 55
19 56
19 57
19 58
19 59
19 61
19 62
19 68
20 21
20 22
20 23
20 24
20 26
20 27
20 31
20 33
20 34
20 35
20 36
20 39
20 42
20 43
20 44
20 47
20 48
20 49
20 50
20 51
20 53
20 54
20 55
20 57
20 58
20 59
20 60
20 62
20 63
20 64
20 66
20 67
21 27
21 28
21 30
21 31
21 35
21 37
21 38
21 39
21 41
21 44
21 47
21 51
21 54
21 55
21 56
21 57
21 59
21 61
21 62
21 63
21 65
21 67
21 68
22 23
22 24
22 29
22 30
22 31
22 32
22 34
22 35
22 37
22 38
22 40
22 42
22 44
22 45
22 46
22 47
22 48
22 49
22 54
22 55
22 58
22 59
22 62
22 63
22 64
22 65
22 66
22 67
22 68
22 69
23 24
23 27
23 28
23 29
23 30
23 31
23 32
23 33
23 35
23 37
23 39
23 40
23 41
23 42
23 44
23 45
23 46
23 47
23 49
23 50
23 51
23 53
23 55
23 56
23 57
23 58
23 59
23 61
23 62
23 63
23 64
23 65
23 66
23 67
23 69
24 28
24 29
24 33
24 34
24 35
24 36
24 38
24 40
24 41
24 42
24 44
24 45
24 46
24 47
24 48
24 50
24 51
24 52
24 53
24 54
24 61
24 62
24 65
24 68
24 69
25 26
25 28
25 29
25 32
25 33
25 37
25 40
25 41
25 42
25 44
25 46
25 47
25 49
25 50
25 51
25 52
25 54
25 58
25 60
25 61
25 63
25 64
25 65
25 66
25 67
25 69
26 29
26 31
26 37
26 38
26 40
26 41
26 45
26 47
26 48
26 49
26 50
26 52
26 54
26 57
26 59
26 61
26 62
26 66
26 67
26 68
26 69
27 28
27 29
27 31
27 32
27 33
27 34
27 35
27 36
27 37
27 38
27 39
27 40
27 42
27 43
27 45
27 46
27 47
27 48
27 50
27 52
27 53
27 55
27 56
27 57
27 58
27 59
27 60
27 61
27 64
27 65
28 30
28 32
28 33
28 35
28 38
28 41
28 42
28 43
28 45
28 46
28 47
28 49
28 50
28 51
28 53
28 55
28 57
28 59
28 60
28 62
28 63
28 64
28 65
28 66
28 67
28 68
29 30
29 31
29 32
29 33
29 37
29 38
29 39
29 41
29 42
29 43
29 47
29 48
29 49
29 51
29 52
29 54
29 55
29 56
29 61
29 62
29 65
29 66
29 67
30 33
30 34
30 36
30 37
30 38
30 39
30 40
30 41
30 46
30 48
30 50
30 51
30 52
30 53
30 55
30 58
30 65
30 66
30 67
30 68
30 69
31 34
31 37
31 38
31 39
31 40
31 41
31 43
31 45
31 46
31 50
31 51
31 52
31 54
31 55
31 56
31 58
31 59
31 60
31 61
31 63
31 64
31 65
31 66
31 67
31 68
32 33
32 34
32 35
32 39
32 44
32 45
32 46
32 51
32 53
32 54
32 55
32 58
32 62
32 64
32 65
32 67
32 68
33 34
33 36
33 37
33 38
33 39
33 41
33 43
33 45
33 46
33 47
33 48
33 50
33 51
33 52
33 55
33 57
33 59
33 60
33 62
33 63
33 64
33 66
33 68
33 69
34 36
34 37
34 38
34 39
34 41
34 42
34 47
34 48
34 49
34 50
34 53
34 54
34 56
34 57
34 59
34 60
34 61
34 63
34 64
34 66
34 67
34 68
35 36
35 38
35 39
35 41
35 44
35 45
35 46
35 47
35 48
35 49
35 50
35 51
35 52
35 53
35 54
35 55
35 56
35 59
35 60
35 61
35 62
35 63
35 66
35 67
35 68
36 37
36 39
36 40
36 42
36 43
36 44
36 45
36 46
36 48
36 50
36 53
36 54
36 55
36 56
36 58
36 59
36 61
36 62
36 66
36 68
37 38
37 39
37 40
37 41
37 43
37 45
37 46
37 47
37 49
37 50
37 51
37 52
37 53
37 54
37 56
37 60
37 62
37 63
37 64
37 68
38 39
38 41
38 43
38 44
38 46
38 48
38 49
38 50
38 51
38 53
38 55
38 57
38 58
38 59
38 60
38 61
38 62
38 63
38 64
38 65
38 66
38 67
38 68
39 41
39 43
39 45
39 50
39 51
39 53
39 54
39 58
39 59
39 61
39 63
39 64
39 66
40 43
40 44
40 47
40 48
40 49
40 50
40 54
40 55
40 56
40 57
40 58
40 59
40 61
40 62
40 65
40 66
40 67
40 68
40 69
41 44
41 46
41 49
41 50
41 51
41 53
41 54
41 55
41 56
41 57
41 61
41 63
41 64
41 67
42 43
42 44
42 45
42 46
42 47
42 50
42 52
42 54
42 58
42 59
42 60
42 61
42 64
42 66
43 45
43 47
43 49
43 50
43 51
43 52
43 57
43 58
43 60
43 61
43 62
43 65
43 66
43 67
43 68
44 46
44 47
44 50
44 51
44 52
44 53
44 55
44 57
44 58
44 59
44 61
44 62
44 63
44 64
44 67
44 68
44 69
45 49
45 51
45 52
45 53
45 54
45 56
45 57
45 60
45 61
45 62
45 63
45 64
45 65
45 66
45 67
45 69
46 47
46 48
46 50
46 52
46 53
46 59
46 60
46 62
46 66
46 67
46 68
47 48
47 50
47 51
47 52
47 53
47 55
47 56
47 57
47 58
47 59
47 61
47 63
47 64
47 66
47 69
48 49
48 54
48 55
48 57
48 58
48 60
48 62
48 63
48 65
48 66
48 68
48 69
49 51
49 53
49 54
49 59
49 61
49 62
49 64
49 66
49 67
49 69
50 52
50 55
50 56
50 57
50 58
50 59
50 60
50 62
50 63
50 65
50 67
51 52
51 53
51 54
51 55
51 56
51 57
51 58
51 61
51 63
51 67
51 69
52 53
52 54
52 55
52 57
52 59
52 60
52 63
52 67
52 68
52 69
53 54
53 55
53 56
53 58
53 61
53 63
53 64
53 66
53 68
53 69
54 56
54 58
54 59
54 65
54 68
55 58
55 59
55 60
55 62
55 64
55 67
55 69
56 57
56 58
56 60
56 61
56 63
56 64
56 65
56 66
56 67
56 68
57 59
57 62
57 64
57 65
57 66
57 67
58 59
58 60
58 61
58 62
58 63
58 64
58 65
58 66
58 68
58 69
59 60
59 63
59 64
59 66
59 68
59 69
60 62
60 63
60 66
60 68
61 65
61 66
61 67
61 68
61 69
62 65
62 66
62 67
62 68
63 64
63 65
63 67
63 68
63 69
64 66
64 67
64 69
65 67
65 68
65 69
66 67
66 69
67 68
67 69
68 69
66 11 2 69 21 30 27 45 64 13 48 20 1 25 42 6 31 4 26 12 58
5 53 56 37 59 10 34 63 61 49 7 15 24 33 8 32 65 46 60 28 36
38 62 40 29 68 57 9 17 55 22 23 47 3 39 54 67 50 41 14 0 51
52 43 35 18 16 19 44
